************************************************************************
file with basedata            : mm15_.bas
initial value random generator: 1311655734
************************************************************************
projects                      :  1
jobs (incl. supersource/sink ):  12
horizon                       :  80
RESOURCES
  - renewable                 :  2   R
  - nonrenewable              :  2   N
  - doubly constrained        :  0   D
************************************************************************
PROJECT INFORMATION:
pronr.  #jobs rel.date duedate tardcost  MPM-Time
    1     10      0       11        4       11
************************************************************************
PRECEDENCE RELATIONS:
jobnr.    #modes  #successors   successors
   0        1          3           1   2   3
   1        3          2           8  10
   2        3          1           4
   3        3          3           5   6   8
   4        3          2           9  10
   5        3          1           7
   6        3          1           7
   7        3          2           9  10
   8        3          1          11
   9        3          1          11
  10        3          1          11
  11        1          0        
************************************************************************
REQUESTS/DURATIONS:
jobnr. mode duration  R 1  R 2  R 3  R 4  E(W 1)  E(W 2)  E(W 3)
------------------------------------------------------------------------
  0      1     0       0    0    0    0     0       0       0
  1      1     5       8    0    5    8    40      25      40
  2      1     1       0    1    4    4     2       4       4
  3      1     1       0    4    4    4     4       4       4
  4      1     2       0    3    3    2     6       6       4
  5      1     5       4    0    6    3    20      30      15
  6      1     5       5    0   10    5    25      50      25
  7      1     1       0    6    2    2     6       2       2
  8      1     2       0    7    6    9    14      12      18
  9      1     4       0    3    8    5    12      32      20
 10      1     2       0    7    7    9    14      14      18
 11      1     0       0    0    0    0     0       0       0
************************************************************************
RESOURCEAVAILABILITIES:
  R 1  R 2  R 3
   27   51   45
************************************************************************
RESOURCE LIMITS:
jobnr.  l(R 1)  u(R 1)  l(R 2)  u(R 2)  l(R 3)  u(R 3)
------------------------------------------------------------------------
  0        0       0       0       0       0       0
  1        4       8       3       5       4       8
  2        1       2       2       4       2       4
  3        2       4       2       4       2       4
  4        2       3       2       3       1       2
  5        2       4       3       6       2       3
  6        3       5       5      10       3       5
  7        3       6       1       2       1       2
  8        4       7       3       6       5       9
  9        2       3       4       8       3       5
 10        4       7       4       7       5       9
 11        0       0       0       0       0       0
************************************************************************
SCENARIOS:
------------------------------------------------------------------------
RESOURCE k = 1
s = 1: (0, 22, 4, 4, 7, 14, 18, 10, 8, 8, 15, 0)
s = 2: (0, 80, 3, 5, 5, 19, 27, 7, 21, 9, 13, 0)
s = 3: (0, 51, 2, 5, 9, 20, 26, 5, 11, 16, 14, 0)
s = 4: (0, 29, 3, 3, 7, 14, 19, 6, 15, 18, 11, 0)
s = 5: (0, 23, 2, 4, 5, 17, 20, 8, 12, 13, 16, 0)
s = 6: (0, 50, 2, 3, 8, 20, 22, 8, 12, 17, 13, 0)
s = 7: (0, 54, 2, 3, 6, 15, 34, 6, 13, 13, 13, 0)
s = 8: (0, 55, 3, 4, 7, 20, 20, 6, 11, 11, 10, 0)
s = 9: (0, 44, 3, 5, 8, 12, 30, 4, 15, 12, 15, 0)
s = 10: (0, 46, 2, 4, 6, 25, 16, 7, 12, 8, 12, 0)
s = 11: (0, 34, 2, 6, 6, 24, 38, 6, 12, 8, 9, 0)
s = 12: (0, 49, 2, 6, 6, 27, 24, 13, 12, 13, 14, 0)
s = 13: (0, 47, 2, 3, 7, 30, 14, 7, 15, 20, 21, 0)
s = 14: (0, 37, 3, 6, 4, 24, 45, 8, 22, 9, 19, 0)
s = 15: (0, 62, 2, 4, 7, 14, 28, 9, 9, 11, 16, 0)
s = 16: (0, 42, 2, 5, 5, 11, 20, 6, 13, 7, 15, 0)
s = 17: (0, 35, 2, 5, 10, 31, 27, 7, 10, 14, 19, 0)
s = 18: (0, 43, 2, 3, 4, 12, 22, 11, 14, 16, 20, 0)
s = 19: (0, 29, 3, 7, 9, 31, 21, 5, 13, 16, 15, 0)
s = 20: (0, 39, 2, 6, 6, 26, 18, 6, 19, 12, 21, 0)
s = 21: (0, 39, 2, 4, 7, 14, 16, 6, 24, 10, 16, 0)
s = 22: (0, 59, 3, 5, 5, 33, 16, 7, 15, 15, 11, 0)
s = 23: (0, 50, 2, 5, 6, 14, 18, 6, 15, 10, 8, 0)
s = 24: (0, 46, 2, 3, 5, 25, 19, 7, 16, 15, 10, 0)
s = 25: (0, 35, 3, 3, 6, 23, 39, 5, 17, 19, 12, 0)
s = 26: (0, 41, 2, 5, 6, 28, 33, 4, 12, 17, 15, 0)
s = 27: (0, 43, 3, 3, 5, 20, 17, 6, 12, 17, 11, 0)
s = 28: (0, 34, 3, 4, 5, 21, 31, 7, 13, 13, 19, 0)
s = 29: (0, 37, 3, 5, 10, 20, 17, 7, 16, 11, 15, 0)
s = 30: (0, 51, 3, 6, 7, 11, 27, 9, 19, 15, 11, 0)
s = 31: (0, 34, 2, 4, 6, 22, 29, 5, 16, 15, 10, 0)
s = 32: (0, 26, 2, 5, 6, 23, 24, 5, 10, 14, 14, 0)
s = 33: (0, 65, 2, 3, 7, 17, 22, 8, 11, 12, 15, 0)
s = 34: (0, 40, 2, 4, 6, 12, 27, 9, 17, 7, 11, 0)
s = 35: (0, 46, 2, 4, 4, 20, 31, 8, 21, 13, 11, 0)
s = 36: (0, 47, 2, 4, 7, 13, 26, 4, 19, 16, 11, 0)
s = 37: (0, 29, 2, 5, 4, 17, 27, 10, 20, 9, 15, 0)
s = 38: (0, 43, 2, 5, 9, 30, 29, 5, 14, 10, 8, 0)
s = 39: (0, 41, 2, 6, 4, 18, 20, 8, 16, 12, 16, 0)
s = 40: (0, 55, 3, 6, 8, 13, 25, 7, 18, 10, 9, 0)
s = 41: (0, 31, 2, 3, 7, 16, 15, 5, 14, 9, 15, 0)
s = 42: (0, 44, 2, 5, 10, 21, 29, 5, 16, 14, 21, 0)
s = 43: (0, 38, 2, 4, 6, 26, 42, 8, 12, 12, 14, 0)
s = 44: (0, 48, 3, 4, 5, 13, 21, 5, 11, 17, 11, 0)
s = 45: (0, 47, 2, 5, 7, 12, 20, 8, 18, 10, 16, 0)
s = 46: (0, 49, 3, 7, 8, 21, 27, 8, 16, 7, 9, 0)
s = 47: (0, 39, 2, 4, 6, 22, 27, 4, 13, 8, 16, 0)
s = 48: (0, 67, 3, 4, 7, 16, 20, 10, 16, 18, 11, 0)
s = 49: (0, 28, 2, 5, 6, 32, 22, 5, 13, 14, 15, 0)
s = 50: (0, 34, 3, 4, 7, 26, 18, 5, 14, 13, 13, 0)
s = 51: (0, 40, 3, 3, 8, 20, 18, 7, 9, 14, 13, 0)
s = 52: (0, 57, 2, 6, 7, 22, 22, 7, 9, 11, 15, 0)
s = 53: (0, 49, 3, 4, 7, 30, 17, 11, 14, 10, 19, 0)
s = 54: (0, 40, 3, 5, 5, 12, 39, 5, 14, 14, 14, 0)
s = 55: (0, 39, 3, 4, 5, 14, 35, 9, 9, 8, 8, 0)
s = 56: (0, 28, 2, 5, 5, 19, 23, 10, 17, 16, 11, 0)
s = 57: (0, 32, 3, 4, 7, 12, 24, 4, 19, 12, 19, 0)
s = 58: (0, 45, 3, 5, 7, 17, 39, 7, 11, 17, 18, 0)
s = 59: (0, 33, 2, 3, 5, 22, 27, 6, 18, 17, 14, 0)
s = 60: (0, 39, 3, 5, 7, 29, 19, 6, 9, 9, 14, 0)
s = 61: (0, 34, 2, 6, 8, 26, 35, 4, 12, 18, 19, 0)
s = 62: (0, 47, 3, 6, 10, 29, 31, 9, 15, 12, 14, 0)
s = 63: (0, 27, 2, 4, 4, 25, 20, 7, 11, 12, 12, 0)
s = 64: (0, 63, 2, 4, 5, 17, 20, 5, 15, 17, 18, 0)
s = 65: (0, 35, 3, 4, 9, 18, 29, 10, 15, 15, 17, 0)
s = 66: (0, 32, 2, 6, 6, 20, 15, 5, 14, 10, 20, 0)
s = 67: (0, 31, 2, 5, 7, 14, 19, 9, 13, 7, 17, 0)
s = 68: (0, 46, 3, 4, 4, 24, 20, 5, 16, 9, 18, 0)
s = 69: (0, 27, 3, 3, 8, 20, 30, 5, 9, 13, 15, 0)
s = 70: (0, 36, 3, 6, 6, 18, 25, 4, 9, 16, 16, 0)
s = 71: (0, 32, 4, 3, 4, 15, 26, 7, 22, 13, 16, 0)
s = 72: (0, 36, 4, 6, 4, 27, 31, 5, 14, 9, 13, 0)
s = 73: (0, 28, 3, 4, 6, 20, 43, 7, 10, 15, 12, 0)
s = 74: (0, 50, 3, 4, 5, 32, 21, 11, 19, 16, 16, 0)
s = 75: (0, 46, 2, 6, 5, 13, 32, 5, 14, 16, 14, 0)
s = 76: (0, 37, 3, 4, 5, 14, 40, 8, 16, 20, 14, 0)
s = 77: (0, 23, 2, 5, 8, 18, 18, 6, 19, 20, 14, 0)
s = 78: (0, 29, 2, 4, 8, 26, 21, 9, 13, 9, 17, 0)
s = 79: (0, 30, 2, 6, 6, 22, 22, 4, 19, 9, 15, 0)
s = 80: (0, 53, 2, 4, 7, 15, 19, 5, 8, 8, 9, 0)
s = 81: (0, 48, 2, 4, 6, 37, 24, 6, 22, 8, 10, 0)
s = 82: (0, 56, 2, 5, 5, 22, 34, 7, 13, 11, 9, 0)
s = 83: (0, 33, 2, 4, 4, 20, 23, 5, 18, 11, 16, 0)
s = 84: (0, 58, 2, 4, 8, 15, 31, 10, 17, 12, 10, 0)
s = 85: (0, 44, 4, 4, 4, 19, 29, 4, 12, 12, 10, 0)
s = 86: (0, 31, 2, 4, 8, 21, 35, 9, 12, 11, 14, 0)
s = 87: (0, 33, 3, 5, 4, 17, 32, 7, 12, 16, 12, 0)
s = 88: (0, 31, 3, 5, 4, 20, 27, 5, 13, 16, 14, 0)
s = 89: (0, 29, 4, 4, 5, 24, 22, 4, 12, 13, 13, 0)
s = 90: (0, 49, 3, 4, 7, 16, 34, 7, 20, 7, 13, 0)
s = 91: (0, 27, 3, 4, 7, 25, 26, 7, 16, 22, 10, 0)
s = 92: (0, 34, 3, 6, 8, 26, 27, 5, 13, 13, 9, 0)
s = 93: (0, 32, 2, 6, 5, 18, 19, 7, 15, 12, 22, 0)
s = 94: (0, 63, 4, 5, 9, 30, 15, 6, 13, 16, 20, 0)
s = 95: (0, 25, 2, 3, 6, 18, 42, 9, 10, 15, 16, 0)
s = 96: (0, 26, 2, 5, 6, 12, 25, 6, 14, 8, 19, 0)
s = 97: (0, 37, 2, 4, 6, 19, 28, 10, 10, 15, 12, 0)
s = 98: (0, 34, 2, 6, 7, 17, 32, 6, 15, 10, 14, 0)
s = 99: (0, 54, 2, 3, 6, 24, 22, 5, 11, 17, 10, 0)
s = 100: (0, 49, 2, 4, 6, 21, 31, 6, 17, 17, 12, 0)
s = 101: (0, 30, 3, 4, 6, 22, 28, 5, 11, 17, 11, 0)
s = 102: (0, 34, 2, 5, 8, 20, 20, 5, 16, 11, 18, 0)
s = 103: (0, 47, 2, 3, 6, 23, 31, 6, 16, 13, 10, 0)
s = 104: (0, 50, 2, 3, 5, 34, 28, 6, 22, 17, 13, 0)
s = 105: (0, 40, 2, 4, 5, 31, 16, 6, 14, 19, 12, 0)
s = 106: (0, 25, 2, 4, 5, 28, 16, 6, 22, 13, 11, 0)
s = 107: (0, 52, 3, 6, 7, 29, 38, 6, 17, 13, 11, 0)
s = 108: (0, 37, 2, 4, 8, 25, 30, 6, 16, 17, 19, 0)
s = 109: (0, 36, 2, 5, 8, 17, 16, 7, 21, 15, 11, 0)
s = 110: (0, 45, 2, 4, 5, 14, 33, 8, 23, 12, 16, 0)
s = 111: (0, 24, 2, 7, 5, 28, 38, 5, 20, 16, 9, 0)
s = 112: (0, 53, 3, 4, 4, 21, 17, 6, 16, 10, 16, 0)
s = 113: (0, 33, 2, 5, 6, 15, 25, 5, 21, 11, 14, 0)
s = 114: (0, 60, 2, 5, 7, 23, 22, 6, 17, 11, 13, 0)
s = 115: (0, 54, 2, 5, 5, 21, 16, 5, 14, 13, 8, 0)
s = 116: (0, 42, 2, 3, 7, 30, 29, 11, 12, 12, 12, 0)
s = 117: (0, 38, 2, 3, 5, 31, 21, 8, 19, 10, 13, 0)
s = 118: (0, 48, 2, 5, 8, 14, 29, 8, 17, 8, 16, 0)
s = 119: (0, 41, 2, 3, 5, 17, 25, 5, 11, 11, 16, 0)
s = 120: (0, 41, 3, 3, 6, 27, 18, 7, 17, 12, 14, 0)
s = 121: (0, 30, 2, 3, 11, 14, 37, 4, 15, 19, 26, 0)
s = 122: (0, 39, 2, 5, 7, 20, 18, 8, 20, 9, 10, 0)
s = 123: (0, 52, 2, 3, 9, 21, 28, 8, 17, 8, 15, 0)
s = 124: (0, 35, 2, 5, 4, 24, 23, 7, 16, 21, 16, 0)
s = 125: (0, 45, 2, 4, 7, 17, 23, 8, 16, 11, 15, 0)
s = 126: (0, 29, 3, 5, 7, 21, 27, 10, 12, 12, 11, 0)
s = 127: (0, 50, 2, 6, 6, 19, 16, 5, 19, 13, 17, 0)
s = 128: (0, 25, 2, 5, 5, 23, 17, 7, 10, 16, 17, 0)
s = 129: (0, 35, 2, 4, 9, 20, 20, 10, 16, 9, 14, 0)
s = 130: (0, 34, 2, 5, 8, 15, 28, 8, 23, 8, 14, 0)
s = 131: (0, 44, 2, 6, 8, 13, 34, 7, 12, 11, 16, 0)
s = 132: (0, 29, 2, 6, 6, 19, 40, 5, 16, 11, 18, 0)
s = 133: (0, 48, 2, 5, 7, 16, 31, 8, 13, 9, 13, 0)
s = 134: (0, 42, 3, 6, 6, 15, 14, 9, 15, 12, 17, 0)
s = 135: (0, 28, 2, 5, 8, 18, 32, 5, 13, 16, 18, 0)
s = 136: (0, 47, 3, 5, 5, 22, 37, 6, 10, 10, 12, 0)
s = 137: (0, 42, 2, 4, 6, 21, 24, 10, 16, 10, 11, 0)
s = 138: (0, 23, 3, 5, 10, 19, 18, 6, 15, 8, 8, 0)
s = 139: (0, 41, 3, 4, 5, 15, 23, 11, 18, 22, 19, 0)
s = 140: (0, 35, 2, 4, 8, 27, 14, 7, 17, 9, 13, 0)
s = 141: (0, 49, 3, 3, 4, 24, 28, 5, 10, 15, 10, 0)
s = 142: (0, 31, 2, 3, 7, 17, 28, 5, 11, 11, 17, 0)
s = 143: (0, 28, 3, 4, 7, 32, 30, 7, 11, 12, 13, 0)
s = 144: (0, 38, 3, 6, 8, 22, 32, 9, 14, 12, 12, 0)
s = 145: (0, 39, 2, 4, 7, 31, 28, 5, 17, 18, 10, 0)
s = 146: (0, 37, 2, 5, 9, 35, 27, 8, 14, 13, 10, 0)
s = 147: (0, 34, 2, 6, 8, 27, 17, 11, 22, 12, 9, 0)
s = 148: (0, 36, 2, 3, 5, 18, 20, 5, 16, 12, 19, 0)
s = 149: (0, 30, 3, 5, 8, 16, 35, 6, 13, 11, 18, 0)
s = 150: (0, 49, 3, 5, 7, 12, 31, 5, 18, 8, 14, 0)
s = 151: (0, 44, 2, 3, 10, 16, 24, 8, 12, 15, 19, 0)
s = 152: (0, 28, 2, 6, 5, 20, 40, 7, 12, 7, 22, 0)
s = 153: (0, 32, 4, 6, 10, 25, 16, 11, 27, 7, 9, 0)
s = 154: (0, 51, 4, 4, 7, 21, 38, 6, 15, 12, 14, 0)
s = 155: (0, 31, 4, 3, 8, 14, 33, 5, 9, 17, 12, 0)
s = 156: (0, 34, 2, 6, 8, 23, 31, 5, 22, 7, 15, 0)
s = 157: (0, 42, 4, 5, 6, 33, 17, 6, 18, 16, 9, 0)
s = 158: (0, 35, 2, 5, 6, 14, 24, 8, 10, 19, 20, 0)
s = 159: (0, 61, 2, 4, 6, 19, 32, 7, 16, 13, 11, 0)
s = 160: (0, 52, 4, 4, 6, 18, 25, 4, 13, 16, 14, 0)
s = 161: (0, 26, 2, 3, 6, 25, 31, 7, 12, 11, 9, 0)
s = 162: (0, 52, 2, 6, 6, 15, 18, 8, 11, 11, 12, 0)
s = 163: (0, 43, 4, 5, 5, 16, 25, 6, 23, 13, 11, 0)
s = 164: (0, 27, 2, 5, 5, 28, 28, 6, 11, 19, 8, 0)
s = 165: (0, 37, 2, 3, 7, 24, 30, 7, 15, 11, 11, 0)
s = 166: (0, 35, 3, 4, 4, 18, 20, 6, 17, 11, 17, 0)
s = 167: (0, 45, 2, 4, 8, 20, 26, 10, 12, 13, 13, 0)
s = 168: (0, 27, 2, 4, 4, 20, 21, 4, 14, 12, 17, 0)
s = 169: (0, 43, 2, 3, 7, 19, 28, 6, 19, 8, 14, 0)
s = 170: (0, 35, 3, 5, 8, 22, 28, 10, 13, 8, 9, 0)
s = 171: (0, 48, 3, 4, 5, 15, 26, 7, 18, 9, 13, 0)
s = 172: (0, 28, 2, 4, 8, 35, 24, 8, 11, 14, 20, 0)
s = 173: (0, 35, 3, 6, 6, 36, 39, 6, 16, 7, 12, 0)
s = 174: (0, 41, 3, 4, 12, 21, 19, 6, 9, 8, 11, 0)
s = 175: (0, 60, 3, 4, 6, 20, 21, 8, 8, 12, 10, 0)
s = 176: (0, 31, 2, 6, 5, 21, 36, 9, 9, 7, 8, 0)
s = 177: (0, 64, 3, 5, 7, 19, 27, 7, 16, 13, 13, 0)
s = 178: (0, 42, 3, 6, 8, 19, 28, 5, 12, 9, 17, 0)
s = 179: (0, 27, 3, 4, 8, 23, 42, 10, 12, 11, 9, 0)
s = 180: (0, 54, 2, 4, 6, 18, 23, 7, 17, 14, 11, 0)
s = 181: (0, 55, 2, 4, 8, 12, 22, 6, 13, 13, 16, 0)
s = 182: (0, 44, 2, 6, 7, 20, 14, 4, 20, 10, 11, 0)
s = 183: (0, 47, 3, 8, 8, 16, 19, 5, 10, 13, 13, 0)
s = 184: (0, 51, 2, 5, 7, 17, 33, 6, 13, 9, 11, 0)
s = 185: (0, 34, 3, 3, 4, 25, 15, 7, 9, 9, 9, 0)
s = 186: (0, 43, 2, 5, 10, 16, 31, 6, 23, 7, 16, 0)
s = 187: (0, 25, 2, 4, 4, 20, 22, 4, 17, 12, 20, 0)
s = 188: (0, 48, 2, 6, 6, 23, 20, 5, 13, 18, 14, 0)
s = 189: (0, 59, 3, 4, 7, 12, 20, 6, 11, 15, 15, 0)
s = 190: (0, 53, 2, 3, 8, 13, 29, 6, 13, 8, 9, 0)
s = 191: (0, 48, 2, 4, 5, 19, 20, 8, 21, 17, 13, 0)
s = 192: (0, 34, 2, 6, 4, 22, 29, 6, 9, 14, 21, 0)
s = 193: (0, 30, 3, 4, 7, 25, 32, 4, 20, 9, 18, 0)
s = 194: (0, 33, 3, 3, 8, 25, 31, 5, 14, 12, 11, 0)
s = 195: (0, 43, 2, 3, 5, 34, 18, 6, 13, 7, 13, 0)
s = 196: (0, 29, 3, 5, 9, 21, 23, 4, 8, 17, 15, 0)
s = 197: (0, 42, 2, 4, 6, 16, 20, 6, 13, 7, 10, 0)
s = 198: (0, 47, 3, 5, 5, 15, 25, 5, 13, 9, 9, 0)
s = 199: (0, 34, 3, 5, 5, 17, 21, 7, 17, 11, 16, 0)
s = 200: (0, 46, 3, 4, 6, 23, 23, 7, 13, 9, 10, 0)
------------------------------------------------------------------------
RESOURCE k = 2
s = 1: (0, 14, 8, 4, 7, 21, 35, 4, 7, 21, 15, 0)
s = 2: (0, 50, 5, 5, 5, 29, 54, 3, 18, 24, 13, 0)
s = 3: (0, 32, 4, 5, 9, 30, 51, 2, 10, 41, 14, 0)
s = 4: (0, 18, 5, 3, 7, 21, 38, 2, 13, 47, 11, 0)
s = 5: (0, 15, 4, 4, 5, 25, 40, 3, 11, 33, 16, 0)
s = 6: (0, 32, 3, 3, 8, 29, 43, 3, 10, 45, 13, 0)
s = 7: (0, 34, 3, 3, 6, 22, 67, 2, 12, 35, 13, 0)
s = 8: (0, 34, 6, 4, 7, 30, 40, 2, 9, 29, 10, 0)
s = 9: (0, 27, 5, 5, 8, 18, 60, 2, 13, 31, 15, 0)
s = 10: (0, 29, 4, 4, 6, 37, 31, 3, 11, 22, 12, 0)
s = 11: (0, 21, 4, 6, 6, 35, 75, 2, 10, 22, 9, 0)
s = 12: (0, 31, 3, 6, 6, 41, 48, 5, 10, 34, 14, 0)
s = 13: (0, 29, 4, 3, 7, 44, 28, 3, 13, 52, 21, 0)
s = 14: (0, 23, 5, 6, 4, 35, 89, 3, 19, 22, 19, 0)
s = 15: (0, 39, 4, 4, 7, 21, 56, 3, 8, 28, 16, 0)
s = 16: (0, 27, 4, 5, 5, 16, 40, 2, 11, 19, 15, 0)
s = 17: (0, 22, 4, 5, 10, 46, 54, 3, 9, 36, 19, 0)
s = 18: (0, 27, 4, 3, 4, 18, 43, 4, 12, 41, 20, 0)
s = 19: (0, 18, 5, 7, 9, 46, 42, 2, 11, 42, 15, 0)
s = 20: (0, 25, 4, 6, 6, 39, 36, 2, 17, 30, 21, 0)
s = 21: (0, 25, 4, 4, 7, 20, 32, 2, 20, 26, 16, 0)
s = 22: (0, 37, 5, 5, 5, 49, 32, 3, 13, 40, 11, 0)
s = 23: (0, 31, 4, 5, 6, 20, 36, 2, 13, 26, 8, 0)
s = 24: (0, 29, 4, 3, 5, 37, 37, 3, 14, 40, 10, 0)
s = 25: (0, 22, 5, 3, 6, 34, 78, 2, 14, 49, 12, 0)
s = 26: (0, 26, 4, 5, 6, 42, 66, 2, 10, 45, 15, 0)
s = 27: (0, 27, 6, 3, 5, 29, 33, 2, 11, 43, 11, 0)
s = 28: (0, 22, 5, 4, 5, 31, 61, 3, 12, 34, 19, 0)
s = 29: (0, 23, 5, 5, 10, 30, 33, 3, 14, 29, 15, 0)
s = 30: (0, 32, 5, 6, 7, 16, 54, 3, 16, 39, 11, 0)
s = 31: (0, 21, 4, 4, 6, 33, 57, 2, 14, 40, 10, 0)
s = 32: (0, 16, 3, 5, 6, 34, 47, 2, 9, 36, 14, 0)
s = 33: (0, 41, 4, 3, 7, 26, 43, 3, 9, 30, 15, 0)
s = 34: (0, 25, 3, 4, 6, 18, 53, 3, 15, 19, 11, 0)
s = 35: (0, 29, 3, 4, 4, 30, 61, 3, 18, 35, 11, 0)
s = 36: (0, 30, 3, 4, 7, 20, 51, 2, 16, 42, 11, 0)
s = 37: (0, 18, 3, 5, 4, 25, 54, 4, 17, 24, 15, 0)
s = 38: (0, 27, 4, 5, 9, 45, 58, 2, 12, 27, 8, 0)
s = 39: (0, 26, 3, 6, 4, 26, 40, 3, 14, 32, 16, 0)
s = 40: (0, 34, 5, 6, 8, 19, 50, 3, 16, 27, 9, 0)
s = 41: (0, 20, 4, 3, 7, 24, 30, 2, 12, 24, 15, 0)
s = 42: (0, 27, 4, 5, 10, 32, 58, 2, 14, 36, 21, 0)
s = 43: (0, 24, 4, 4, 6, 38, 83, 3, 10, 32, 14, 0)
s = 44: (0, 30, 5, 4, 5, 19, 41, 2, 9, 43, 11, 0)
s = 45: (0, 30, 3, 5, 7, 18, 40, 3, 15, 25, 16, 0)
s = 46: (0, 31, 5, 7, 8, 32, 54, 3, 14, 18, 9, 0)
s = 47: (0, 24, 3, 4, 6, 33, 54, 2, 11, 21, 16, 0)
s = 48: (0, 42, 6, 4, 7, 24, 40, 4, 14, 46, 11, 0)
s = 49: (0, 18, 3, 5, 6, 48, 43, 2, 11, 36, 15, 0)
s = 50: (0, 22, 5, 4, 7, 38, 36, 2, 12, 35, 13, 0)
s = 51: (0, 25, 6, 3, 8, 29, 35, 3, 8, 36, 13, 0)
s = 52: (0, 36, 4, 6, 7, 32, 44, 3, 8, 28, 15, 0)
s = 53: (0, 31, 5, 4, 7, 44, 33, 4, 12, 26, 19, 0)
s = 54: (0, 25, 5, 5, 5, 17, 78, 2, 12, 37, 14, 0)
s = 55: (0, 24, 5, 4, 5, 21, 69, 3, 8, 22, 8, 0)
s = 56: (0, 18, 4, 5, 5, 28, 45, 4, 14, 42, 11, 0)
s = 57: (0, 20, 6, 4, 7, 17, 48, 2, 16, 31, 19, 0)
s = 58: (0, 29, 5, 5, 7, 25, 78, 3, 9, 44, 18, 0)
s = 59: (0, 21, 4, 3, 5, 33, 54, 2, 15, 45, 14, 0)
s = 60: (0, 25, 5, 5, 7, 43, 37, 2, 8, 22, 14, 0)
s = 61: (0, 21, 4, 6, 8, 38, 70, 2, 10, 48, 19, 0)
s = 62: (0, 29, 5, 6, 10, 43, 62, 3, 13, 31, 14, 0)
s = 63: (0, 17, 4, 4, 4, 38, 39, 3, 10, 31, 12, 0)
s = 64: (0, 40, 4, 4, 5, 26, 40, 2, 13, 45, 18, 0)
s = 65: (0, 22, 5, 4, 9, 26, 58, 4, 13, 39, 17, 0)
s = 66: (0, 20, 4, 6, 6, 30, 29, 2, 12, 26, 20, 0)
s = 67: (0, 20, 4, 5, 7, 20, 37, 3, 11, 17, 17, 0)
s = 68: (0, 29, 6, 4, 4, 35, 39, 2, 14, 22, 18, 0)
s = 69: (0, 17, 5, 3, 8, 30, 60, 2, 8, 35, 15, 0)
s = 70: (0, 23, 5, 6, 6, 27, 49, 2, 8, 41, 16, 0)
s = 71: (0, 20, 7, 3, 4, 23, 51, 3, 19, 33, 16, 0)
s = 72: (0, 23, 8, 6, 4, 41, 62, 2, 12, 23, 13, 0)
s = 73: (0, 17, 6, 4, 6, 30, 86, 3, 8, 38, 12, 0)
s = 74: (0, 32, 5, 4, 5, 47, 42, 4, 17, 41, 16, 0)
s = 75: (0, 29, 4, 6, 5, 19, 63, 2, 12, 42, 14, 0)
s = 76: (0, 23, 6, 4, 5, 21, 79, 3, 13, 52, 14, 0)
s = 77: (0, 14, 3, 5, 8, 27, 36, 2, 17, 53, 14, 0)
s = 78: (0, 18, 4, 4, 8, 39, 42, 3, 11, 24, 17, 0)
s = 79: (0, 19, 4, 6, 6, 33, 43, 2, 16, 22, 15, 0)
s = 80: (0, 34, 4, 4, 7, 22, 37, 2, 7, 20, 9, 0)
s = 81: (0, 30, 4, 4, 6, 55, 48, 2, 19, 21, 10, 0)
s = 82: (0, 35, 3, 5, 5, 33, 68, 3, 12, 29, 9, 0)
s = 83: (0, 21, 4, 4, 4, 30, 46, 2, 15, 27, 16, 0)
s = 84: (0, 36, 4, 4, 8, 22, 61, 4, 15, 31, 10, 0)
s = 85: (0, 28, 7, 4, 4, 28, 58, 2, 10, 32, 10, 0)
s = 86: (0, 19, 4, 4, 8, 31, 70, 3, 11, 27, 14, 0)
s = 87: (0, 21, 5, 5, 4, 25, 63, 3, 10, 43, 12, 0)
s = 88: (0, 20, 5, 5, 4, 30, 54, 2, 11, 41, 14, 0)
s = 89: (0, 18, 7, 4, 5, 36, 44, 2, 10, 35, 13, 0)
s = 90: (0, 31, 5, 4, 7, 24, 67, 3, 17, 19, 13, 0)
s = 91: (0, 17, 5, 4, 7, 38, 52, 3, 14, 58, 10, 0)
s = 92: (0, 21, 5, 6, 8, 38, 53, 2, 11, 34, 9, 0)
s = 93: (0, 20, 4, 6, 5, 27, 38, 3, 13, 31, 22, 0)
s = 94: (0, 40, 7, 5, 9, 45, 30, 2, 11, 42, 20, 0)
s = 95: (0, 16, 3, 3, 6, 26, 84, 3, 9, 39, 16, 0)
s = 96: (0, 16, 3, 5, 6, 18, 50, 2, 12, 21, 19, 0)
s = 97: (0, 24, 3, 4, 6, 28, 55, 4, 9, 39, 12, 0)
s = 98: (0, 22, 4, 6, 7, 25, 63, 2, 13, 26, 14, 0)
s = 99: (0, 34, 4, 3, 6, 36, 44, 2, 10, 46, 10, 0)
s = 100: (0, 31, 4, 4, 6, 31, 61, 2, 15, 44, 12, 0)
s = 101: (0, 19, 6, 4, 6, 33, 55, 2, 10, 45, 11, 0)
s = 102: (0, 21, 3, 5, 8, 29, 39, 2, 14, 29, 18, 0)
s = 103: (0, 29, 3, 3, 6, 34, 62, 2, 14, 34, 10, 0)
s = 104: (0, 31, 4, 3, 5, 50, 55, 2, 19, 44, 13, 0)
s = 105: (0, 25, 4, 4, 5, 46, 32, 2, 12, 51, 12, 0)
s = 106: (0, 16, 4, 4, 5, 42, 32, 2, 19, 33, 11, 0)
s = 107: (0, 33, 5, 6, 7, 44, 75, 2, 15, 33, 11, 0)
s = 108: (0, 23, 4, 4, 8, 37, 59, 2, 14, 44, 19, 0)
s = 109: (0, 23, 3, 5, 8, 26, 31, 3, 18, 40, 11, 0)
s = 110: (0, 28, 4, 4, 5, 20, 66, 3, 19, 32, 16, 0)
s = 111: (0, 15, 4, 7, 5, 42, 76, 2, 17, 41, 9, 0)
s = 112: (0, 33, 5, 4, 4, 32, 34, 2, 14, 26, 16, 0)
s = 113: (0, 21, 4, 5, 6, 22, 49, 2, 18, 28, 14, 0)
s = 114: (0, 38, 4, 5, 7, 34, 44, 2, 15, 29, 13, 0)
s = 115: (0, 34, 4, 5, 5, 31, 32, 2, 12, 35, 8, 0)
s = 116: (0, 26, 4, 3, 7, 44, 57, 4, 11, 30, 12, 0)
s = 117: (0, 24, 4, 3, 5, 47, 41, 3, 16, 25, 13, 0)
s = 118: (0, 30, 4, 5, 8, 20, 58, 3, 15, 22, 16, 0)
s = 119: (0, 26, 4, 3, 5, 26, 49, 2, 9, 27, 16, 0)
s = 120: (0, 26, 6, 3, 6, 41, 35, 3, 14, 31, 14, 0)
s = 121: (0, 19, 4, 3, 11, 21, 74, 2, 13, 50, 26, 0)
s = 122: (0, 25, 4, 5, 7, 30, 35, 3, 17, 23, 10, 0)
s = 123: (0, 33, 3, 3, 9, 31, 56, 3, 15, 20, 15, 0)
s = 124: (0, 22, 4, 5, 4, 36, 45, 3, 14, 54, 16, 0)
s = 125: (0, 28, 3, 4, 7, 25, 45, 3, 13, 28, 15, 0)
s = 126: (0, 18, 5, 5, 7, 31, 54, 4, 11, 31, 11, 0)
s = 127: (0, 31, 3, 6, 6, 28, 31, 2, 16, 35, 17, 0)
s = 128: (0, 16, 4, 5, 5, 35, 33, 3, 9, 43, 17, 0)
s = 129: (0, 22, 3, 4, 9, 30, 39, 4, 14, 24, 14, 0)
s = 130: (0, 22, 4, 5, 8, 22, 56, 3, 20, 19, 14, 0)
s = 131: (0, 28, 4, 6, 8, 19, 67, 3, 10, 28, 16, 0)
s = 132: (0, 18, 4, 6, 6, 28, 80, 2, 14, 29, 18, 0)
s = 133: (0, 30, 3, 5, 7, 23, 61, 3, 11, 23, 13, 0)
s = 134: (0, 27, 5, 6, 6, 22, 27, 3, 13, 32, 17, 0)
s = 135: (0, 17, 3, 5, 8, 27, 63, 2, 11, 43, 18, 0)
s = 136: (0, 29, 6, 5, 5, 33, 73, 2, 9, 25, 12, 0)
s = 137: (0, 26, 3, 4, 6, 31, 48, 4, 14, 25, 11, 0)
s = 138: (0, 14, 5, 5, 10, 29, 36, 2, 13, 22, 8, 0)
s = 139: (0, 26, 5, 4, 5, 23, 45, 4, 15, 57, 19, 0)
s = 140: (0, 22, 4, 4, 8, 41, 28, 3, 15, 22, 13, 0)
s = 141: (0, 31, 5, 3, 4, 35, 56, 2, 8, 40, 10, 0)
s = 142: (0, 20, 4, 3, 7, 26, 55, 2, 9, 28, 17, 0)
s = 143: (0, 17, 5, 4, 7, 47, 60, 3, 10, 30, 13, 0)
s = 144: (0, 24, 5, 6, 8, 32, 64, 3, 12, 30, 12, 0)
s = 145: (0, 25, 4, 4, 7, 47, 55, 2, 15, 47, 10, 0)
s = 146: (0, 23, 4, 5, 9, 52, 54, 3, 12, 34, 10, 0)
s = 147: (0, 22, 4, 6, 8, 40, 33, 4, 19, 31, 9, 0)
s = 148: (0, 22, 3, 3, 5, 27, 40, 2, 14, 32, 19, 0)
s = 149: (0, 19, 5, 5, 8, 24, 70, 2, 11, 29, 18, 0)
s = 150: (0, 31, 5, 5, 7, 18, 61, 2, 16, 21, 14, 0)
s = 151: (0, 28, 4, 3, 10, 24, 47, 3, 10, 39, 19, 0)
s = 152: (0, 17, 4, 6, 5, 30, 80, 3, 10, 18, 22, 0)
s = 153: (0, 20, 7, 6, 10, 38, 32, 4, 23, 19, 9, 0)
s = 154: (0, 32, 8, 4, 7, 32, 76, 2, 13, 30, 14, 0)
s = 155: (0, 19, 7, 3, 8, 21, 65, 2, 8, 44, 12, 0)
s = 156: (0, 22, 3, 6, 8, 34, 62, 2, 19, 18, 15, 0)
s = 157: (0, 26, 8, 5, 6, 49, 33, 2, 16, 42, 9, 0)
s = 158: (0, 22, 3, 5, 6, 21, 47, 3, 9, 49, 20, 0)
s = 159: (0, 38, 4, 4, 6, 28, 63, 3, 13, 33, 11, 0)
s = 160: (0, 33, 7, 4, 6, 27, 50, 2, 11, 42, 14, 0)
s = 161: (0, 17, 4, 3, 6, 38, 62, 3, 10, 28, 9, 0)
s = 162: (0, 33, 4, 6, 6, 22, 35, 3, 10, 30, 12, 0)
s = 163: (0, 27, 7, 5, 5, 24, 49, 2, 20, 34, 11, 0)
s = 164: (0, 17, 4, 5, 5, 42, 55, 2, 10, 49, 8, 0)
s = 165: (0, 23, 4, 3, 7, 35, 59, 3, 13, 28, 11, 0)
s = 166: (0, 22, 5, 4, 4, 26, 40, 2, 14, 29, 17, 0)
s = 167: (0, 28, 4, 4, 8, 29, 51, 4, 10, 34, 13, 0)
s = 168: (0, 17, 4, 4, 4, 30, 41, 2, 12, 32, 17, 0)
s = 169: (0, 27, 3, 3, 7, 28, 56, 2, 16, 20, 14, 0)
s = 170: (0, 22, 6, 5, 8, 32, 56, 4, 11, 21, 9, 0)
s = 171: (0, 30, 5, 4, 5, 22, 52, 3, 15, 23, 13, 0)
s = 172: (0, 18, 4, 4, 8, 52, 47, 3, 9, 37, 20, 0)
s = 173: (0, 22, 5, 6, 6, 53, 77, 2, 14, 18, 12, 0)
s = 174: (0, 26, 5, 4, 12, 31, 37, 2, 8, 19, 11, 0)
s = 175: (0, 38, 5, 4, 6, 29, 41, 3, 7, 31, 10, 0)
s = 176: (0, 20, 4, 6, 5, 31, 71, 3, 8, 18, 8, 0)
s = 177: (0, 40, 6, 5, 7, 28, 53, 3, 14, 33, 13, 0)
s = 178: (0, 27, 6, 6, 8, 29, 56, 2, 10, 24, 17, 0)
s = 179: (0, 17, 5, 4, 8, 34, 84, 4, 11, 28, 9, 0)
s = 180: (0, 34, 3, 4, 6, 26, 46, 3, 15, 36, 11, 0)
s = 181: (0, 34, 4, 4, 8, 18, 43, 2, 11, 34, 16, 0)
s = 182: (0, 28, 4, 6, 7, 30, 27, 2, 17, 25, 11, 0)
s = 183: (0, 30, 5, 8, 8, 24, 38, 2, 9, 35, 13, 0)
s = 184: (0, 32, 4, 5, 7, 25, 66, 2, 11, 23, 11, 0)
s = 185: (0, 21, 5, 3, 4, 37, 29, 3, 7, 24, 9, 0)
s = 186: (0, 27, 3, 5, 10, 24, 62, 2, 20, 18, 16, 0)
s = 187: (0, 16, 3, 4, 4, 30, 44, 2, 15, 31, 20, 0)
s = 188: (0, 30, 4, 6, 6, 34, 39, 2, 11, 47, 14, 0)
s = 189: (0, 37, 6, 4, 7, 17, 39, 2, 10, 39, 15, 0)
s = 190: (0, 33, 4, 3, 8, 19, 58, 2, 11, 21, 9, 0)
s = 191: (0, 30, 4, 4, 5, 28, 40, 3, 18, 45, 13, 0)
s = 192: (0, 21, 4, 6, 4, 33, 58, 2, 8, 36, 21, 0)
s = 193: (0, 19, 5, 4, 7, 37, 63, 2, 17, 22, 18, 0)
s = 194: (0, 21, 5, 3, 8, 37, 62, 2, 12, 30, 11, 0)
s = 195: (0, 27, 3, 3, 5, 51, 35, 2, 11, 18, 13, 0)
s = 196: (0, 18, 5, 5, 9, 31, 45, 2, 7, 45, 15, 0)
s = 197: (0, 26, 4, 4, 6, 24, 40, 2, 11, 18, 10, 0)
s = 198: (0, 30, 6, 5, 5, 22, 49, 2, 11, 23, 9, 0)
s = 199: (0, 21, 5, 5, 5, 26, 41, 3, 14, 29, 16, 0)
s = 200: (0, 29, 6, 4, 6, 35, 45, 3, 11, 23, 10, 0)
------------------------------------------------------------------------
RESOURCE k = 3
s = 1: (0, 22, 8, 4, 5, 11, 18, 4, 11, 13, 20, 0)
s = 2: (0, 80, 5, 5, 4, 15, 27, 3, 27, 15, 17, 0)
s = 3: (0, 51, 4, 5, 6, 15, 26, 2, 14, 26, 18, 0)
s = 4: (0, 29, 5, 3, 5, 11, 19, 2, 19, 29, 14, 0)
s = 5: (0, 23, 4, 4, 3, 13, 20, 3, 16, 21, 20, 0)
s = 6: (0, 50, 3, 3, 5, 15, 22, 3, 15, 28, 17, 0)
s = 7: (0, 54, 3, 3, 4, 11, 34, 2, 17, 22, 16, 0)
s = 8: (0, 55, 6, 4, 5, 15, 20, 2, 13, 18, 13, 0)
s = 9: (0, 44, 5, 5, 5, 9, 30, 2, 19, 20, 19, 0)
s = 10: (0, 46, 4, 4, 4, 19, 16, 3, 16, 14, 15, 0)
s = 11: (0, 34, 4, 6, 4, 18, 38, 2, 15, 14, 12, 0)
s = 12: (0, 49, 3, 6, 4, 21, 24, 5, 15, 22, 18, 0)
s = 13: (0, 47, 4, 3, 5, 22, 14, 3, 19, 33, 27, 0)
s = 14: (0, 37, 5, 6, 3, 18, 45, 3, 28, 14, 24, 0)
s = 15: (0, 62, 4, 4, 5, 11, 28, 3, 12, 18, 20, 0)
s = 16: (0, 42, 4, 5, 4, 8, 20, 2, 17, 12, 19, 0)
s = 17: (0, 35, 4, 5, 7, 23, 27, 3, 13, 23, 24, 0)
s = 18: (0, 43, 4, 3, 3, 9, 22, 4, 18, 26, 25, 0)
s = 19: (0, 29, 5, 7, 6, 23, 21, 2, 16, 26, 19, 0)
s = 20: (0, 39, 4, 6, 4, 20, 18, 2, 25, 19, 27, 0)
s = 21: (0, 39, 4, 4, 5, 10, 16, 2, 30, 17, 21, 0)
s = 22: (0, 59, 5, 5, 3, 25, 16, 3, 19, 25, 14, 0)
s = 23: (0, 50, 4, 5, 4, 10, 18, 2, 19, 16, 10, 0)
s = 24: (0, 46, 4, 3, 4, 19, 19, 3, 21, 25, 13, 0)
s = 25: (0, 35, 5, 3, 4, 17, 39, 2, 21, 31, 16, 0)
s = 26: (0, 41, 4, 5, 4, 21, 33, 2, 15, 28, 19, 0)
s = 27: (0, 43, 6, 3, 3, 15, 17, 2, 16, 27, 14, 0)
s = 28: (0, 34, 5, 4, 3, 16, 31, 3, 17, 22, 24, 0)
s = 29: (0, 37, 5, 5, 7, 15, 17, 3, 21, 18, 20, 0)
s = 30: (0, 51, 5, 6, 5, 8, 27, 3, 24, 25, 14, 0)
s = 31: (0, 34, 4, 4, 4, 17, 29, 2, 20, 25, 12, 0)
s = 32: (0, 26, 3, 5, 4, 17, 24, 2, 13, 23, 18, 0)
s = 33: (0, 65, 4, 3, 5, 13, 22, 3, 14, 19, 19, 0)
s = 34: (0, 40, 3, 4, 4, 9, 27, 3, 22, 12, 14, 0)
s = 35: (0, 46, 3, 4, 3, 15, 31, 3, 27, 22, 14, 0)
s = 36: (0, 47, 3, 4, 5, 10, 26, 2, 24, 27, 14, 0)
s = 37: (0, 29, 3, 5, 3, 13, 27, 4, 25, 15, 19, 0)
s = 38: (0, 43, 4, 5, 6, 23, 29, 2, 18, 17, 10, 0)
s = 39: (0, 41, 3, 6, 3, 13, 20, 3, 20, 20, 21, 0)
s = 40: (0, 55, 5, 6, 5, 10, 25, 3, 23, 17, 11, 0)
s = 41: (0, 31, 4, 3, 5, 12, 15, 2, 18, 15, 19, 0)
s = 42: (0, 44, 4, 5, 7, 16, 29, 2, 20, 23, 26, 0)
s = 43: (0, 38, 4, 4, 4, 19, 42, 3, 15, 20, 18, 0)
s = 44: (0, 48, 5, 4, 3, 10, 21, 2, 14, 27, 13, 0)
s = 45: (0, 47, 3, 5, 5, 9, 20, 3, 23, 16, 20, 0)
s = 46: (0, 49, 5, 7, 6, 16, 27, 3, 21, 11, 11, 0)
s = 47: (0, 39, 3, 4, 4, 17, 27, 2, 17, 13, 21, 0)
s = 48: (0, 67, 6, 4, 5, 12, 20, 4, 21, 29, 14, 0)
s = 49: (0, 28, 3, 5, 4, 24, 22, 2, 17, 23, 19, 0)
s = 50: (0, 34, 5, 4, 5, 19, 18, 2, 18, 22, 16, 0)
s = 51: (0, 40, 6, 3, 5, 15, 18, 3, 12, 22, 16, 0)
s = 52: (0, 57, 4, 6, 5, 16, 22, 3, 12, 18, 20, 0)
s = 53: (0, 49, 5, 4, 5, 22, 17, 4, 17, 17, 24, 0)
s = 54: (0, 40, 5, 5, 3, 9, 39, 2, 17, 23, 18, 0)
s = 55: (0, 39, 5, 4, 3, 11, 35, 3, 12, 14, 10, 0)
s = 56: (0, 28, 4, 5, 4, 14, 23, 4, 21, 27, 14, 0)
s = 57: (0, 32, 6, 4, 5, 9, 24, 2, 24, 20, 24, 0)
s = 58: (0, 45, 5, 5, 5, 13, 39, 3, 14, 28, 23, 0)
s = 59: (0, 33, 4, 3, 3, 17, 27, 2, 23, 28, 18, 0)
s = 60: (0, 39, 5, 5, 5, 22, 19, 2, 12, 14, 18, 0)
s = 61: (0, 34, 4, 6, 6, 19, 35, 2, 15, 30, 25, 0)
s = 62: (0, 47, 5, 6, 7, 22, 31, 3, 19, 19, 18, 0)
s = 63: (0, 27, 4, 4, 3, 19, 20, 3, 14, 19, 16, 0)
s = 64: (0, 63, 4, 4, 4, 13, 20, 2, 19, 29, 23, 0)
s = 65: (0, 35, 5, 4, 6, 13, 29, 4, 20, 25, 21, 0)
s = 66: (0, 32, 4, 6, 4, 15, 15, 2, 18, 16, 26, 0)
s = 67: (0, 31, 4, 5, 5, 10, 19, 3, 17, 11, 22, 0)
s = 68: (0, 46, 6, 4, 3, 18, 20, 2, 20, 14, 23, 0)
s = 69: (0, 27, 5, 3, 5, 15, 30, 2, 12, 22, 19, 0)
s = 70: (0, 36, 5, 6, 4, 14, 25, 2, 11, 26, 20, 0)
s = 71: (0, 32, 7, 3, 3, 12, 26, 3, 28, 21, 20, 0)
s = 72: (0, 36, 8, 6, 3, 21, 31, 2, 18, 15, 17, 0)
s = 73: (0, 28, 6, 4, 4, 15, 43, 3, 12, 24, 15, 0)
s = 74: (0, 50, 5, 4, 4, 24, 21, 4, 25, 26, 20, 0)
s = 75: (0, 46, 4, 6, 4, 10, 32, 2, 18, 26, 18, 0)
s = 76: (0, 37, 6, 4, 4, 11, 40, 3, 20, 33, 17, 0)
s = 77: (0, 23, 3, 5, 6, 14, 18, 2, 25, 33, 18, 0)
s = 78: (0, 29, 4, 4, 5, 20, 21, 3, 17, 15, 22, 0)
s = 79: (0, 30, 4, 6, 4, 17, 22, 2, 24, 14, 19, 0)
s = 80: (0, 53, 4, 4, 5, 11, 19, 2, 11, 13, 12, 0)
s = 81: (0, 48, 4, 4, 4, 28, 24, 2, 28, 13, 12, 0)
s = 82: (0, 56, 3, 5, 3, 17, 34, 3, 17, 19, 12, 0)
s = 83: (0, 33, 4, 4, 3, 15, 23, 2, 23, 17, 20, 0)
s = 84: (0, 58, 4, 4, 6, 11, 31, 4, 22, 20, 13, 0)
s = 85: (0, 44, 7, 4, 3, 14, 29, 2, 15, 20, 13, 0)
s = 86: (0, 31, 4, 4, 6, 16, 35, 3, 16, 17, 18, 0)
s = 87: (0, 33, 5, 5, 3, 13, 32, 3, 15, 27, 16, 0)
s = 88: (0, 31, 5, 5, 3, 15, 27, 2, 17, 26, 18, 0)
s = 89: (0, 29, 7, 4, 3, 18, 22, 2, 15, 22, 16, 0)
s = 90: (0, 49, 5, 4, 5, 12, 34, 3, 25, 12, 17, 0)
s = 91: (0, 27, 5, 4, 5, 19, 26, 3, 21, 37, 13, 0)
s = 92: (0, 34, 5, 6, 6, 19, 27, 2, 17, 21, 12, 0)
s = 93: (0, 32, 4, 6, 4, 14, 19, 3, 19, 19, 28, 0)
s = 94: (0, 63, 7, 5, 6, 23, 15, 2, 16, 27, 25, 0)
s = 95: (0, 25, 3, 3, 4, 13, 42, 3, 13, 25, 20, 0)
s = 96: (0, 26, 3, 5, 4, 9, 25, 2, 18, 13, 25, 0)
s = 97: (0, 37, 3, 4, 4, 14, 28, 4, 13, 25, 15, 0)
s = 98: (0, 34, 4, 6, 5, 13, 32, 2, 19, 17, 17, 0)
s = 99: (0, 54, 4, 3, 4, 18, 22, 2, 15, 29, 13, 0)
s = 100: (0, 49, 4, 4, 4, 16, 31, 2, 22, 28, 16, 0)
s = 101: (0, 30, 6, 4, 4, 17, 28, 2, 14, 28, 14, 0)
s = 102: (0, 34, 3, 5, 5, 15, 20, 2, 21, 18, 23, 0)
s = 103: (0, 47, 3, 3, 4, 17, 31, 2, 21, 22, 12, 0)
s = 104: (0, 50, 4, 3, 3, 25, 28, 2, 28, 28, 16, 0)
s = 105: (0, 40, 4, 4, 4, 23, 16, 2, 17, 32, 15, 0)
s = 106: (0, 25, 4, 4, 3, 21, 16, 2, 28, 21, 15, 0)
s = 107: (0, 52, 5, 6, 5, 22, 38, 2, 22, 21, 14, 0)
s = 108: (0, 37, 4, 4, 6, 19, 30, 2, 21, 28, 25, 0)
s = 109: (0, 36, 3, 5, 5, 13, 16, 3, 27, 25, 14, 0)
s = 110: (0, 45, 4, 4, 4, 10, 33, 3, 29, 20, 21, 0)
s = 111: (0, 24, 4, 7, 3, 21, 38, 2, 25, 26, 11, 0)
s = 112: (0, 53, 5, 4, 3, 16, 17, 2, 20, 17, 21, 0)
s = 113: (0, 33, 4, 5, 4, 11, 25, 2, 27, 18, 18, 0)
s = 114: (0, 60, 4, 5, 5, 17, 22, 2, 22, 18, 17, 0)
s = 115: (0, 54, 4, 5, 4, 16, 16, 2, 17, 22, 10, 0)
s = 116: (0, 42, 4, 3, 5, 22, 29, 4, 16, 19, 15, 0)
s = 117: (0, 38, 4, 3, 4, 24, 21, 3, 24, 16, 17, 0)
s = 118: (0, 48, 4, 5, 5, 10, 29, 3, 22, 14, 20, 0)
s = 119: (0, 41, 4, 3, 3, 13, 25, 2, 14, 17, 20, 0)
s = 120: (0, 41, 6, 3, 4, 21, 18, 3, 21, 20, 18, 0)
s = 121: (0, 30, 4, 3, 7, 11, 37, 2, 20, 31, 33, 0)
s = 122: (0, 39, 4, 5, 5, 15, 18, 3, 25, 15, 13, 0)
s = 123: (0, 52, 3, 3, 6, 16, 28, 3, 22, 13, 20, 0)
s = 124: (0, 35, 4, 5, 3, 18, 23, 3, 20, 34, 21, 0)
s = 125: (0, 45, 3, 4, 5, 13, 23, 3, 20, 17, 19, 0)
s = 126: (0, 29, 5, 5, 5, 16, 27, 4, 16, 19, 14, 0)
s = 127: (0, 50, 3, 6, 4, 14, 16, 2, 24, 22, 22, 0)
s = 128: (0, 25, 4, 5, 3, 18, 17, 3, 13, 27, 22, 0)
s = 129: (0, 35, 3, 4, 6, 15, 20, 4, 21, 15, 18, 0)
s = 130: (0, 34, 4, 5, 5, 11, 28, 3, 30, 12, 18, 0)
s = 131: (0, 44, 4, 6, 6, 10, 34, 3, 15, 18, 21, 0)
s = 132: (0, 29, 4, 6, 4, 14, 40, 2, 21, 19, 23, 0)
s = 133: (0, 48, 3, 5, 5, 12, 31, 3, 17, 14, 17, 0)
s = 134: (0, 42, 5, 6, 4, 11, 14, 3, 19, 20, 22, 0)
s = 135: (0, 28, 3, 5, 5, 14, 32, 2, 16, 27, 24, 0)
s = 136: (0, 47, 6, 5, 3, 17, 37, 2, 13, 16, 15, 0)
s = 137: (0, 42, 3, 4, 4, 16, 24, 4, 21, 16, 14, 0)
s = 138: (0, 23, 5, 5, 7, 15, 18, 2, 19, 14, 11, 0)
s = 139: (0, 41, 5, 4, 3, 12, 23, 4, 23, 36, 24, 0)
s = 140: (0, 35, 4, 4, 5, 21, 14, 3, 22, 14, 16, 0)
s = 141: (0, 49, 5, 3, 3, 18, 28, 2, 12, 25, 12, 0)
s = 142: (0, 31, 4, 3, 5, 13, 28, 2, 14, 17, 22, 0)
s = 143: (0, 28, 5, 4, 5, 24, 30, 3, 14, 19, 17, 0)
s = 144: (0, 38, 5, 6, 5, 16, 32, 3, 18, 19, 15, 0)
s = 145: (0, 39, 4, 4, 5, 24, 28, 2, 22, 30, 12, 0)
s = 146: (0, 37, 4, 5, 6, 26, 27, 3, 18, 21, 13, 0)
s = 147: (0, 34, 4, 6, 5, 20, 17, 4, 28, 19, 11, 0)
s = 148: (0, 36, 3, 3, 4, 14, 20, 2, 21, 20, 24, 0)
s = 149: (0, 30, 5, 5, 6, 12, 35, 2, 17, 18, 23, 0)
s = 150: (0, 49, 5, 5, 5, 9, 31, 2, 23, 13, 18, 0)
s = 151: (0, 44, 4, 3, 7, 12, 24, 3, 15, 25, 24, 0)
s = 152: (0, 28, 4, 6, 4, 15, 40, 3, 15, 12, 28, 0)
s = 153: (0, 32, 7, 6, 7, 19, 16, 4, 34, 12, 12, 0)
s = 154: (0, 51, 8, 4, 5, 16, 38, 2, 19, 19, 18, 0)
s = 155: (0, 31, 7, 3, 5, 11, 33, 2, 11, 28, 15, 0)
s = 156: (0, 34, 3, 6, 5, 17, 31, 2, 29, 11, 20, 0)
s = 157: (0, 42, 8, 5, 4, 25, 17, 2, 23, 26, 12, 0)
s = 158: (0, 35, 3, 5, 4, 11, 24, 3, 13, 31, 26, 0)
s = 159: (0, 61, 4, 4, 4, 14, 32, 3, 20, 21, 14, 0)
s = 160: (0, 52, 7, 4, 4, 14, 25, 2, 16, 27, 18, 0)
s = 161: (0, 26, 4, 3, 4, 19, 31, 3, 15, 18, 11, 0)
s = 162: (0, 52, 4, 6, 4, 11, 18, 3, 15, 19, 16, 0)
s = 163: (0, 43, 7, 5, 3, 12, 25, 2, 29, 21, 14, 0)
s = 164: (0, 27, 4, 5, 4, 21, 28, 2, 15, 31, 10, 0)
s = 165: (0, 37, 4, 3, 5, 18, 30, 3, 19, 17, 14, 0)
s = 166: (0, 35, 5, 4, 3, 13, 20, 2, 21, 19, 21, 0)
s = 167: (0, 45, 4, 4, 6, 15, 26, 4, 15, 21, 17, 0)
s = 168: (0, 27, 4, 4, 3, 15, 21, 2, 18, 20, 21, 0)
s = 169: (0, 43, 3, 3, 5, 14, 28, 2, 24, 13, 18, 0)
s = 170: (0, 35, 6, 5, 6, 16, 28, 4, 16, 13, 12, 0)
s = 171: (0, 48, 5, 4, 4, 11, 26, 3, 23, 14, 16, 0)
s = 172: (0, 28, 4, 4, 5, 26, 24, 3, 14, 23, 26, 0)
s = 173: (0, 35, 5, 6, 4, 27, 39, 2, 20, 12, 15, 0)
s = 174: (0, 41, 5, 4, 8, 16, 19, 2, 12, 12, 14, 0)
s = 175: (0, 60, 5, 4, 4, 15, 21, 3, 11, 19, 13, 0)
s = 176: (0, 31, 4, 6, 4, 16, 36, 3, 12, 12, 11, 0)
s = 177: (0, 64, 6, 5, 5, 14, 27, 3, 20, 21, 16, 0)
s = 178: (0, 42, 6, 6, 5, 15, 28, 2, 15, 15, 21, 0)
s = 179: (0, 27, 5, 4, 5, 17, 42, 4, 16, 18, 12, 0)
s = 180: (0, 54, 3, 4, 4, 13, 23, 3, 22, 23, 14, 0)
s = 181: (0, 55, 4, 4, 6, 9, 22, 2, 17, 21, 21, 0)
s = 182: (0, 44, 4, 6, 5, 15, 14, 2, 25, 16, 14, 0)
s = 183: (0, 47, 5, 8, 6, 12, 19, 2, 13, 22, 16, 0)
s = 184: (0, 51, 4, 5, 5, 13, 33, 2, 16, 15, 14, 0)
s = 185: (0, 34, 5, 3, 3, 19, 15, 3, 11, 15, 11, 0)
s = 186: (0, 43, 3, 5, 7, 12, 31, 2, 30, 12, 20, 0)
s = 187: (0, 25, 3, 4, 3, 15, 22, 2, 22, 19, 25, 0)
s = 188: (0, 48, 4, 6, 4, 17, 20, 2, 16, 30, 18, 0)
s = 189: (0, 59, 6, 4, 5, 9, 20, 2, 14, 25, 19, 0)
s = 190: (0, 53, 4, 3, 6, 10, 29, 2, 17, 13, 11, 0)
s = 191: (0, 48, 4, 4, 3, 14, 20, 3, 27, 29, 17, 0)
s = 192: (0, 34, 4, 6, 3, 17, 29, 2, 12, 22, 26, 0)
s = 193: (0, 30, 5, 4, 5, 19, 32, 2, 26, 14, 23, 0)
s = 194: (0, 33, 5, 3, 5, 19, 31, 2, 17, 19, 14, 0)
s = 195: (0, 43, 3, 3, 3, 26, 18, 2, 16, 11, 16, 0)
s = 196: (0, 29, 5, 5, 6, 16, 23, 2, 11, 28, 19, 0)
s = 197: (0, 42, 4, 4, 4, 12, 20, 2, 17, 11, 13, 0)
s = 198: (0, 47, 6, 5, 3, 11, 25, 2, 16, 15, 11, 0)
s = 199: (0, 34, 5, 5, 4, 13, 21, 3, 21, 18, 20, 0)
s = 200: (0, 46, 6, 4, 4, 18, 23, 3, 16, 15, 13, 0)
************************************************************************
ES/LS-VALUES:
jobnr.   ES(i)    LS(i)
------------------------------------------------------------------------
  0        0        0
  1        0       66
  2        0       66
  3        0       57
  4        2       68
  5        2       59
  6        2       60
  7       11       69
  8       10       76
  9       13       72
 10       13       76
 11       20       80
************************************************************************
BIG-M-VALUES:
M1 = 57, M2 = 214
************************************************************************
